1614582000
1614612660
1614668400
1614699000
1614754740
1614785400
1614841200
1614871800
1614699000
1614700800
1614927600
1614958200
1615272240
1615290300
1615905000
1615916820
1616056920
1616081880
1616136840
1616167800
1616167800
1616169060
1616395500
1616427000
1616482200
1616513400
1616513400
1616517240
1616569200
1616590800
1616590800
1616592600
1616655600
1616686200
1616742000
1616772720
1616997600
1617028200
1617083940
1617114600
1617169500
1617201240
